(declare-fun temp750_2 () (_ BitVec 64))
(declare-fun temp750_1 () (_ BitVec 64))
(declare-fun temp750_3 () (_ BitVec 64))
(declare-fun var656574 () (_ BitVec 64))
(declare-fun temp750_4 () (_ BitVec 64))
(declare-fun temp750_5 () (_ BitVec 64))
(declare-fun var656674 () (_ BitVec 64))
(declare-fun k!0 () Bool)
(declare-fun ARGNAME_n_NAMEEND () (_ BitVec 64))
(declare-fun temp750_6 () (_ BitVec 64))
(declare-fun ARGNAME_input_NAMEEND_DIM () (_ BitVec 64))
(declare-fun var1116139 () (_ BitVec 64))
(declare-fun temp750_8 () (_ BitVec 64))
(declare-fun temp750_7 () (_ BitVec 64))
(declare-fun var1182583 () (_ BitVec 64))
(declare-fun temp750_9 () (_ BitVec 64))
(declare-fun var1249032 () (_ BitVec 64))
(declare-fun var1314577 () (_ BitVec 64))
(declare-fun temp750_11 () (_ BitVec 64))
(declare-fun temp750_10 () (_ BitVec 64))
(declare-fun temp750_12 () (_ BitVec 64))
(declare-fun var1511159 () (_ BitVec 64))
(declare-fun temp750_13 () (_ BitVec 64))
(declare-fun var1116200 () (_ BitVec 64))
(declare-fun temp750_14 () (_ BitVec 64))
(declare-fun var1116242 () (_ BitVec 64))
(declare-fun temp750_16 () (_ BitVec 64))
(declare-fun temp750_15 () (_ BitVec 64))
(declare-fun temp750_17 () (_ BitVec 64))
(declare-fun var2100216 () (_ BitVec 64))
(declare-fun temp750_18 () (_ BitVec 64))
(declare-fun var2100254 () (_ BitVec 64))
(declare-fun temp750_19 () (_ BitVec 64))
(declare-fun var1116187 () (_ BitVec 64))
(declare-fun var1116186 () (_ BitVec 64))
(declare-fun temp750_20 () (_ BitVec 64))
(declare-fun var1116191 () (_ BitVec 64))
(declare-fun temp750_21 () (_ BitVec 64))
(declare-fun var1116193 () (_ BitVec 64))
(declare-fun temp750_22 () (_ BitVec 64))
(declare-fun temp750_23 () (_ BitVec 64))
(declare-fun var3280026 () (_ BitVec 64))
(declare-fun var3803342 () (_ BitVec 64))
(declare-fun temp750_24 () (_ BitVec 64))
(declare-fun temp750_25 () (_ BitVec 64))
(declare-fun var3803388 () (_ BitVec 64))
(declare-fun var3803419 () (_ BitVec 64))
(declare-fun var3803340 () (_ BitVec 64))
(declare-fun var656744 () (_ BitVec 64))
(declare-fun var656747 () (_ BitVec 64))
(declare-fun var4788873 () (_ BitVec 64))
(declare-fun var4788874 () (_ BitVec 64))
(declare-fun var4920024 () (_ BitVec 64))
(declare-fun var4920025 () (_ BitVec 64))
(assert (= temp750_2 #x0000000000000000))
(assert (= temp750_1 temp750_2))
(assert (= temp750_3 #x0000000000000001))
(assert (= var656574 temp750_3))
(assert (= temp750_4 #x0000000000000001))
(assert (= var656674
   (ite (bvslt ARGNAME_n_NAMEEND temp750_4)
        #x0000000000000001
        #x0000000000000000)))
(assert (= temp750_5 #x0000000000000000))
(assert (= var656674 temp750_5))
(assert (= temp750_6 #x0000000000000001))
(assert (= var1116139 (bvshl ARGNAME_input_NAMEEND_DIM temp750_6)))
(assert (= temp750_8 #x0000000000000000))
(assert (= temp750_7 temp750_8))
(assert (= var1182583 var1116139))
(assert (= temp750_9 #x0000000000000005))
(assert (= var1249032 temp750_9))
(assert (= var1314577 var1182583))
(assert (= temp750_11 #x0000000000000000))
(assert (= temp750_10 temp750_11))
(assert (= temp750_12 #x0000000000000000))
(assert (= var1511159 temp750_12))
(assert (= temp750_13 #x0000000000000000))
(assert (= var1116200 temp750_13))
(assert (= temp750_14 #x0000000000000001))
(assert (= var1116242 temp750_14))
(assert (= temp750_16 #x0000000000000000))
(assert (= temp750_15 temp750_16))
(assert (= temp750_17 #x0000000000000001))
(assert (= var2100216 temp750_17))
(assert (= temp750_18 #x0000000000000000))
(assert (= var2100254 temp750_18))
(assert (= temp750_19 #x0000000000000000))
(assert (= var2100254 temp750_19))
(assert (= var1116187 var1116242))
(assert (= var1116186 var1116187))
(assert (= temp750_20 #x0000000000000001))
(assert (= var1116191 (bvand var1116186 temp750_20)))
(assert (= temp750_21 #x0000000000000000))
(assert (= var1116193
   (ite (= var1116191 temp750_21) #x0000000000000001 #x0000000000000000)))
(assert (= temp750_22 #x0000000000000000))
(assert (= var1116193 temp750_22))
(assert (= temp750_23 #x0000000000000000))
(assert (= var3280026 temp750_23))
(assert (= var3803342 var656574))
(assert (= temp750_24 #x0000000000000002))
(assert (= temp750_25 #x0000000000000000))
(assert (= var3803388 (ite (= var3803342 #x0000000000000001) temp750_24 temp750_25)))
(assert (= var3803419 var3803388))
(assert (= var3803340 var3803419))
(assert (= var656744 var3803340))
(assert (= var656747 var656744))
(assert (= var4788873 var656747))
(assert (= var4788874 var656574))
(assert (= var4920024 var4788873))
(assert (= var4920025 var4788874))
(model-add temp750_2 () (_ BitVec 64) #x0000000000000000)
(model-add temp750_1 () (_ BitVec 64) #x0000000000000000)
(model-add temp750_3 () (_ BitVec 64) #x0000000000000001)
(model-add var656574 () (_ BitVec 64) #x0000000000000001)
(model-add temp750_4 () (_ BitVec 64) #x0000000000000001)
(model-add temp750_5 () (_ BitVec 64) #x0000000000000000)
(model-add var656674 () (_ BitVec 64) #x0000000000000000)
(model-del k!0)
(model-add ARGNAME_n_NAMEEND
           ()
           (_ BitVec 64)
           (ite (or k!0 (= #x0000000000000001 #x8000000000000000))
                #x0000000000000001
                (bvsub #x0000000000000001 #x0000000000000001)))






